c nIsolatedPIs 0
c maxPI 32
p cnf 98 199
c gate 33 7 23 0
7 -33 0
23 -33 0
-7 -23 33 0
c gate 34 8 24 0
8 -34 0
24 -34 0
-8 -24 34 0
c gate 35 -33 -34 0
-33 -35 0
-34 -35 0
33 34 35 0
c gate 36 -7 -23 0
-7 -36 0
-23 -36 0
7 23 36 0
c gate 37 5 21 0
5 -37 0
21 -37 0
-5 -21 37 0
c gate 38 6 22 0
6 -38 0
22 -38 0
-6 -22 38 0
c gate 39 -37 -38 0
-37 -39 0
-38 -39 0
37 38 39 0
c gate 40 -6 -22 0
-6 -40 0
-22 -40 0
6 22 40 0
c gate 41 -39 -40 0
-39 -41 0
-40 -41 0
39 40 41 0
c gate 42 2 18 0
2 -42 0
18 -42 0
-2 -18 42 0
c gate 43 1 17 0
1 -43 0
17 -43 0
-1 -17 43 0
c gate 44 -42 -43 0
-42 -44 0
-43 -44 0
42 43 44 0
c gate 45 -3 -19 0
-3 -45 0
-19 -45 0
3 19 45 0
c gate 46 -2 -18 0
-2 -46 0
-18 -46 0
2 18 46 0
c gate 47 -45 -46 0
-45 -47 0
-46 -47 0
45 46 47 0
c gate 48 -44 47 0
-44 -48 0
47 -48 0
44 -47 48 0
c gate 49 3 19 0
3 -49 0
19 -49 0
-3 -19 49 0
c gate 50 4 20 0
4 -50 0
20 -50 0
-4 -20 50 0
c gate 51 -49 -50 0
-49 -51 0
-50 -51 0
49 50 51 0
c gate 52 -48 51 0
-48 -52 0
51 -52 0
48 -51 52 0
c gate 53 -4 -20 0
-4 -53 0
-20 -53 0
4 20 53 0
c gate 54 -5 -21 0
-5 -54 0
-21 -54 0
5 21 54 0
c gate 55 -40 -54 0
-40 -55 0
-54 -55 0
40 54 55 0
c gate 56 -53 55 0
-53 -56 0
55 -56 0
53 -55 56 0
c gate 57 39 56 0
39 -57 0
56 -57 0
-39 -56 57 0
c gate 58 -52 57 0
-52 -58 0
57 -58 0
52 -57 58 0
c gate 59 10 26 0
10 -59 0
26 -59 0
-10 -26 59 0
c gate 60 9 25 0
9 -60 0
25 -60 0
-9 -25 60 0
c gate 61 -59 -60 0
-59 -61 0
-60 -61 0
59 60 61 0
c gate 62 -12 -28 0
-12 -62 0
-28 -62 0
12 28 62 0
c gate 63 11 27 0
11 -63 0
27 -63 0
-11 -27 63 0
c gate 64 12 28 0
12 -64 0
28 -64 0
-12 -28 64 0
c gate 65 -63 -64 0
-63 -65 0
-64 -65 0
63 64 65 0
c gate 66 -62 -65 0
-62 -66 0
-65 -66 0
62 65 66 0
c gate 67 61 -66 0
61 -67 0
-66 -67 0
-61 66 67 0
c gate 68 58 -67 0
58 -68 0
-67 -68 0
-58 67 68 0
c gate 69 -41 -68 0
-41 -69 0
-68 -69 0
41 68 69 0
c gate 70 -36 -69 0
-36 -70 0
-69 -70 0
36 69 70 0
c gate 71 35 -70 0
35 -71 0
-70 -71 0
-35 70 71 0
c gate 72 -8 -24 0
-8 -72 0
-24 -72 0
8 24 72 0
c gate 73 -10 -26 0
-10 -73 0
-26 -73 0
10 26 73 0
c gate 74 -72 -73 0
-72 -74 0
-73 -74 0
72 73 74 0
c gate 75 65 74 0
65 -75 0
74 -75 0
-65 -74 75 0
c gate 76 61 75 0
61 -76 0
75 -76 0
-61 -75 76 0
c gate 77 -9 -25 0
-9 -77 0
-25 -77 0
9 25 77 0
c gate 78 -11 -27 0
-11 -78 0
-27 -78 0
11 27 78 0
c gate 79 -13 -29 0
-13 -79 0
-29 -79 0
13 29 79 0
c gate 80 -78 -79 0
-78 -80 0
-79 -80 0
78 79 80 0
c gate 81 -77 80 0
-77 -81 0
80 -81 0
77 -80 81 0
c gate 82 16 32 0
16 -82 0
32 -82 0
-16 -32 82 0
c gate 83 14 30 0
14 -83 0
30 -83 0
-14 -30 83 0
c gate 84 -82 -83 0
-82 -84 0
-83 -84 0
82 83 84 0
c gate 85 -16 -32 0
-16 -85 0
-32 -85 0
16 32 85 0
c gate 86 13 29 0
13 -86 0
29 -86 0
-13 -29 86 0
c gate 87 -85 -86 0
-85 -87 0
-86 -87 0
85 86 87 0
c gate 88 84 87 0
84 -88 0
87 -88 0
-84 -87 88 0
c gate 89 -14 -30 0
-14 -89 0
-30 -89 0
14 30 89 0
c gate 90 -15 -31 0
-15 -90 0
-31 -90 0
15 31 90 0
c gate 91 -89 -90 0
-89 -91 0
-90 -91 0
89 90 91 0
c gate 92 15 31 0
15 -92 0
31 -92 0
-15 -31 92 0
c gate 93 -62 -92 0
-62 -93 0
-92 -93 0
62 92 93 0
c gate 94 91 93 0
91 -94 0
93 -94 0
-91 -93 94 0
c gate 95 88 94 0
88 -95 0
94 -95 0
-88 -94 95 0
c gate 96 81 95 0
81 -96 0
95 -96 0
-81 -95 96 0
c gate 97 76 96 0
76 -97 0
96 -97 0
-76 -96 97 0
c gate 98 -71 97 0
-71 -98 0
97 -98 0
71 -97 98 0
c PO
98 0
